800 800
100.00 100.00
166.67 100.00
233.33 100.00
300.00 100.00
366.67 100.00
433.33 100.00
500.00 100.00
566.67 100.00
633.33 100.00
700.00 100.00
100.00 166.67
166.67 166.67
233.33 166.67
300.00 166.67
366.67 166.67
433.33 166.67
500.00 166.67
566.67 166.67
633.33 166.67
700.00 166.67
100.00 233.33
166.67 233.33
233.33 233.33
300.00 233.33
366.67 233.33
433.33 233.33
500.00 233.33
566.67 233.33
633.33 233.33
700.00 233.33
100.00 300.00
166.67 300.00
233.33 300.00
300.00 300.00
366.67 300.00
433.33 300.00
500.00 300.00
566.67 300.00
633.33 300.00
700.00 300.00
100.00 366.67
166.67 366.67
233.33 366.67
300.00 366.67
366.67 366.67
433.33 366.67
500.00 366.67
566.67 366.67
633.33 366.67
700.00 366.67
100.00 433.33
166.67 433.33
233.33 433.33
300.00 433.33
366.67 433.33
433.33 433.33
500.00 433.33
566.67 433.33
633.33 433.33
700.00 433.33
100.00 500.00
166.67 500.00
233.33 500.00
300.00 500.00
366.67 500.00
433.33 500.00
500.00 500.00
566.67 500.00
633.33 500.00
700.00 500.00
100.00 566.67
166.67 566.67
233.33 566.67
300.00 566.67
366.67 566.67
433.33 566.67
500.00 566.67
566.67 566.67
633.33 566.67
700.00 566.67
100.00 633.33
166.67 633.33
233.33 633.33
300.00 633.33
366.67 633.33
433.33 633.33
500.00 633.33
566.67 633.33
633.33 633.33
700.00 633.33
100.00 700.00
166.67 700.00
233.33 700.00
300.00 700.00
366.67 700.00
433.33 700.00
500.00 700.00
566.67 700.00
633.33 700.00
700.00 700.00
